NAME 
OBJSENSE MAX
ROWS
 N  OBJ
 L  packing[0]
 L  packing[1]
 L  packing[2]
 L  packing[3]
 L  packing[4]
 L  packing[5]
 L  packing[6]
 L  packing[7]
 L  packing[8]
 L  packing[9]
 L  packing[10]
 L  packing[11]
 L  packing[12]
 L  packing[13]
 L  packing[14]
 L  packing[15]
 L  packing[16]
 L  packing[17]
 L  packing[18]
 L  packing[19]
 L  packing[20]
 L  packing[21]
 L  packing[22]
 L  packing[23]
 L  packing[24]
 L  packing[25]
 L  packing[26]
 L  packing[27]
 L  packing[28]
 L  packing[29]
 L  packing[30]
 L  packing[31]
 L  packing[32]
 L  packing[33]
 L  packing[34]
 L  packing[35]
 L  packing[36]
 L  packing[37]
 L  packing[38]
 L  packing[39]
 L  packing[40]
 L  packing[41]
 L  packing[42]
 L  packing[43]
 L  packing[44]
 L  packing[45]
 L  packing[46]
 L  packing[47]
 L  packing[48]
 L  packing[49]
 L  R51     
COLUMNS
    MARKER    'MARKER'                 'INTORG'
    x[1]      OBJ       19
    x[1]      packing[0]  127
    x[1]      packing[1]  163
    x[1]      packing[4]  75
    x[1]      packing[5]  88
    x[1]      packing[6]  114
    x[1]      packing[7]  31
    x[1]      packing[8]  126
    x[1]      packing[9]  178
    x[1]      packing[10]  123
    x[1]      packing[11]  20
    x[1]      packing[12]  48
    x[1]      packing[13]  83
    x[1]      packing[14]  178
    x[1]      packing[15]  140
    x[1]      packing[17]  94
    x[1]      packing[18]  76
    x[1]      packing[19]  10
    x[1]      packing[21]  70
    x[1]      packing[22]  117
    x[1]      packing[24]  159
    x[1]      packing[26]  178
    x[1]      packing[28]  105
    x[1]      packing[29]  139
    x[1]      packing[30]  19
    x[1]      packing[32]  31
    x[1]      packing[35]  26
    x[1]      packing[36]  122
    x[1]      packing[37]  39
    x[1]      packing[38]  141
    x[1]      packing[39]  12
    x[1]      packing[40]  139
    x[1]      packing[41]  35
    x[1]      packing[42]  163
    x[1]      packing[43]  106
    x[1]      packing[44]  122
    x[1]      packing[45]  97
    x[1]      packing[46]  80
    x[1]      packing[48]  24
    x[1]      packing[49]  143
    x[2]      OBJ       88
    x[2]      packing[2]  62
    x[2]      packing[3]  73
    x[2]      packing[4]  30
    x[2]      packing[5]  159
    x[2]      packing[8]  45
    x[2]      packing[9]  151
    x[2]      packing[11]  148
    x[2]      packing[15]  114
    x[2]      packing[18]  29
    x[2]      packing[19]  46
    x[2]      packing[21]  12
    x[2]      packing[22]  52
    x[2]      packing[23]  146
    x[2]      packing[24]  8
    x[2]      packing[25]  7
    x[2]      packing[27]  90
    x[2]      packing[28]  103
    x[2]      packing[29]  13
    x[2]      packing[30]  156
    x[2]      packing[31]  187
    x[2]      packing[32]  92
    x[2]      packing[33]  111
    x[2]      packing[34]  136
    x[2]      packing[35]  57
    x[2]      packing[36]  90
    x[2]      packing[37]  122
    x[2]      packing[38]  89
    x[2]      packing[39]  114
    x[2]      packing[40]  91
    x[2]      packing[41]  32
    x[2]      packing[42]  87
    x[2]      packing[43]  61
    x[2]      packing[44]  13
    x[2]      packing[46]  120
    x[2]      packing[47]  110
    x[2]      packing[48]  58
    x[2]      packing[49]  3
    x[3]      OBJ       192
    x[3]      packing[1]  130
    x[3]      packing[2]  32
    x[3]      packing[3]  85
    x[3]      packing[5]  83
    x[3]      packing[9]  185
    x[3]      packing[12]  123
    x[3]      packing[13]  143
    x[3]      packing[14]  161
    x[3]      packing[15]  121
    x[3]      packing[16]  177
    x[3]      packing[17]  43
    x[3]      packing[19]  141
    x[3]      packing[20]  96
    x[3]      packing[21]  59
    x[3]      packing[24]  199
    x[3]      packing[25]  73
    x[3]      packing[27]  99
    x[3]      packing[28]  31
    x[3]      packing[29]  66
    x[3]      packing[31]  196
    x[3]      packing[32]  120
    x[3]      packing[33]  15
    x[3]      packing[35]  139
    x[3]      packing[36]  120
    x[3]      packing[37]  15
    x[3]      packing[38]  102
    x[3]      packing[39]  27
    x[3]      packing[40]  121
    x[3]      packing[41]  93
    x[3]      packing[42]  172
    x[3]      packing[44]  88
    x[3]      packing[45]  130
    x[3]      packing[46]  46
    x[3]      packing[47]  157
    x[3]      packing[48]  50
    x[3]      packing[49]  134
    x[3]      R51       1
    x[4]      OBJ       5
    x[4]      packing[0]  194
    x[4]      packing[2]  140
    x[4]      packing[3]  92
    x[4]      packing[4]  103
    x[4]      packing[5]  28
    x[4]      packing[7]  87
    x[4]      packing[9]  26
    x[4]      packing[10]  112
    x[4]      packing[11]  83
    x[4]      packing[12]  43
    x[4]      packing[13]  197
    x[4]      packing[14]  147
    x[4]      packing[15]  155
    x[4]      packing[16]  1
    x[4]      packing[17]  157
    x[4]      packing[18]  194
    x[4]      packing[19]  108
    x[4]      packing[20]  39
    x[4]      packing[21]  42
    x[4]      packing[22]  94
    x[4]      packing[23]  38
    x[4]      packing[24]  73
    x[4]      packing[25]  33
    x[4]      packing[26]  21
    x[4]      packing[28]  82
    x[4]      packing[30]  113
    x[4]      packing[31]  1
    x[4]      packing[32]  7
    x[4]      packing[34]  130
    x[4]      packing[35]  166
    x[4]      packing[36]  182
    x[4]      packing[37]  75
    x[4]      packing[38]  82
    x[4]      packing[39]  82
    x[4]      packing[40]  185
    x[4]      packing[41]  105
    x[4]      packing[42]  24
    x[4]      packing[45]  33
    x[4]      packing[46]  150
    x[4]      packing[47]  136
    x[4]      packing[48]  175
    x[5]      OBJ       9
    x[5]      packing[2]  93
    x[5]      packing[3]  170
    x[5]      packing[4]  195
    x[5]      packing[5]  180
    x[5]      packing[6]  148
    x[5]      packing[7]  14
    x[5]      packing[8]  87
    x[5]      packing[9]  137
    x[5]      packing[11]  178
    x[5]      packing[12]  147
    x[5]      packing[13]  44
    x[5]      packing[14]  20
    x[5]      packing[15]  89
    x[5]      packing[16]  98
    x[5]      packing[18]  25
    x[5]      packing[19]  32
    x[5]      packing[20]  61
    x[5]      packing[21]  139
    x[5]      packing[22]  174
    x[5]      packing[23]  141
    x[5]      packing[27]  190
    x[5]      packing[28]  41
    x[5]      packing[29]  115
    x[5]      packing[30]  94
    x[5]      packing[31]  39
    x[5]      packing[32]  20
    x[5]      packing[33]  52
    x[5]      packing[34]  131
    x[5]      packing[35]  183
    x[5]      packing[36]  135
    x[5]      packing[37]  185
    x[5]      packing[38]  172
    x[5]      packing[39]  11
    x[5]      packing[40]  23
    x[5]      packing[41]  163
    x[5]      packing[42]  175
    x[5]      packing[43]  127
    x[5]      packing[44]  91
    x[5]      packing[46]  92
    x[5]      packing[47]  163
    x[6]      OBJ       52
    x[6]      packing[1]  54
    x[6]      packing[3]  165
    x[6]      packing[4]  169
    x[6]      packing[5]  158
    x[6]      packing[8]  3
    x[6]      packing[9]  99
    x[6]      packing[11]  38
    x[6]      packing[13]  116
    x[6]      packing[14]  118
    x[6]      packing[15]  40
    x[6]      packing[16]  76
    x[6]      packing[17]  65
    x[6]      packing[18]  30
    x[6]      packing[19]  47
    x[6]      packing[20]  76
    x[6]      packing[21]  35
    x[6]      packing[22]  114
    x[6]      packing[25]  136
    x[6]      packing[26]  89
    x[6]      packing[27]  52
    x[6]      packing[28]  136
    x[6]      packing[29]  121
    x[6]      packing[30]  47
    x[6]      packing[31]  38
    x[6]      packing[32]  31
    x[6]      packing[34]  195
    x[6]      packing[35]  45
    x[6]      packing[36]  148
    x[6]      packing[37]  99
    x[6]      packing[39]  157
    x[6]      packing[42]  146
    x[6]      packing[43]  77
    x[6]      packing[44]  18
    x[6]      packing[45]  71
    x[6]      packing[46]  117
    x[6]      packing[47]  110
    x[6]      packing[48]  24
    x[6]      packing[49]  50
    x[7]      OBJ       157
    x[7]      packing[0]  142
    x[7]      packing[1]  180
    x[7]      packing[3]  103
    x[7]      packing[4]  73
    x[7]      packing[5]  93
    x[7]      packing[6]  145
    x[7]      packing[7]  112
    x[7]      packing[8]  6
    x[7]      packing[9]  71
    x[7]      packing[10]  54
    x[7]      packing[11]  19
    x[7]      packing[12]  197
    x[7]      packing[13]  106
    x[7]      packing[14]  115
    x[7]      packing[15]  164
    x[7]      packing[16]  56
    x[7]      packing[17]  14
    x[7]      packing[18]  143
    x[7]      packing[19]  147
    x[7]      packing[21]  32
    x[7]      packing[25]  94
    x[7]      packing[27]  29
    x[7]      packing[30]  130
    x[7]      packing[31]  191
    x[7]      packing[32]  93
    x[7]      packing[33]  15
    x[7]      packing[35]  81
    x[7]      packing[36]  15
    x[7]      packing[37]  29
    x[7]      packing[38]  180
    x[7]      packing[39]  179
    x[7]      packing[40]  21
    x[7]      packing[41]  107
    x[7]      packing[42]  16
    x[7]      packing[44]  62
    x[7]      packing[45]  177
    x[7]      packing[46]  149
    x[7]      packing[47]  182
    x[7]      packing[48]  133
    x[8]      OBJ       158
    x[8]      packing[2]  175
    x[8]      packing[3]  169
    x[8]      packing[4]  51
    x[8]      packing[5]  143
    x[8]      packing[7]  199
    x[8]      packing[8]  98
    x[8]      packing[9]  20
    x[8]      packing[10]  20
    x[8]      packing[11]  49
    x[8]      packing[12]  197
    x[8]      packing[13]  187
    x[8]      packing[14]  66
    x[8]      packing[16]  103
    x[8]      packing[17]  137
    x[8]      packing[19]  74
    x[8]      packing[21]  4
    x[8]      packing[22]  53
    x[8]      packing[23]  150
    x[8]      packing[25]  6
    x[8]      packing[27]  71
    x[8]      packing[28]  69
    x[8]      packing[29]  146
    x[8]      packing[30]  33
    x[8]      packing[31]  178
    x[8]      packing[33]  32
    x[8]      packing[34]  108
    x[8]      packing[35]  190
    x[8]      packing[36]  56
    x[8]      packing[38]  116
    x[8]      packing[41]  58
    x[8]      packing[45]  106
    x[8]      packing[46]  165
    x[8]      packing[48]  95
    x[8]      packing[49]  125
    x[8]      R51       1
    x[9]      OBJ       140
    x[9]      packing[0]  170
    x[9]      packing[2]  36
    x[9]      packing[3]  94
    x[9]      packing[4]  27
    x[9]      packing[7]  177
    x[9]      packing[12]  154
    x[9]      packing[14]  195
    x[9]      packing[18]  25
    x[9]      packing[21]  27
    x[9]      packing[23]  166
    x[9]      packing[24]  33
    x[9]      packing[25]  107
    x[9]      packing[26]  37
    x[9]      packing[27]  15
    x[9]      packing[30]  45
    x[9]      packing[31]  167
    x[9]      packing[32]  194
    x[9]      packing[34]  66
    x[9]      packing[35]  58
    x[9]      packing[37]  190
    x[9]      packing[38]  151
    x[9]      packing[39]  124
    x[9]      packing[42]  165
    x[9]      packing[43]  25
    x[9]      packing[44]  3
    x[9]      packing[45]  100
    x[9]      packing[47]  68
    x[9]      packing[48]  196
    x[9]      packing[49]  28
    x[10]     OBJ       150
    x[10]     packing[0]  127
    x[10]     packing[2]  71
    x[10]     packing[3]  90
    x[10]     packing[7]  168
    x[10]     packing[9]  59
    x[10]     packing[10]  16
    x[10]     packing[11]  199
    x[10]     packing[12]  166
    x[10]     packing[13]  77
    x[10]     packing[14]  182
    x[10]     packing[16]  164
    x[10]     packing[18]  52
    x[10]     packing[19]  74
    x[10]     packing[20]  144
    x[10]     packing[21]  199
    x[10]     packing[22]  94
    x[10]     packing[23]  167
    x[10]     packing[24]  20
    x[10]     packing[25]  104
    x[10]     packing[27]  120
    x[10]     packing[28]  82
    x[10]     packing[31]  134
    x[10]     packing[33]  77
    x[10]     packing[35]  198
    x[10]     packing[37]  32
    x[10]     packing[38]  5
    x[10]     packing[39]  103
    x[10]     packing[40]  142
    x[10]     packing[43]  27
    x[10]     packing[44]  98
    x[10]     packing[45]  59
    x[10]     packing[46]  99
    x[10]     packing[48]  7
    x[11]     OBJ       147
    x[11]     packing[0]  135
    x[11]     packing[1]  111
    x[11]     packing[2]  53
    x[11]     packing[3]  79
    x[11]     packing[4]  69
    x[11]     packing[6]  22
    x[11]     packing[8]  144
    x[11]     packing[9]  8
    x[11]     packing[11]  152
    x[11]     packing[12]  184
    x[11]     packing[13]  119
    x[11]     packing[15]  63
    x[11]     packing[17]  184
    x[11]     packing[18]  175
    x[11]     packing[19]  150
    x[11]     packing[20]  158
    x[11]     packing[23]  140
    x[11]     packing[24]  93
    x[11]     packing[25]  186
    x[11]     packing[26]  97
    x[11]     packing[28]  109
    x[11]     packing[29]  69
    x[11]     packing[32]  162
    x[11]     packing[34]  184
    x[11]     packing[36]  166
    x[11]     packing[37]  157
    x[11]     packing[39]  109
    x[11]     packing[41]  97
    x[11]     packing[44]  166
    x[11]     packing[45]  59
    x[11]     packing[46]  56
    x[11]     packing[47]  116
    x[11]     packing[48]  109
    x[11]     packing[49]  169
    x[11]     R51       1
    x[12]     OBJ       55
    x[12]     packing[2]  105
    x[12]     packing[3]  176
    x[12]     packing[4]  64
    x[12]     packing[5]  22
    x[12]     packing[6]  55
    x[12]     packing[7]  199
    x[12]     packing[8]  95
    x[12]     packing[9]  21
    x[12]     packing[10]  196
    x[12]     packing[11]  177
    x[12]     packing[12]  123
    x[12]     packing[13]  10
    x[12]     packing[14]  45
    x[12]     packing[15]  46
    x[12]     packing[17]  191
    x[12]     packing[18]  32
    x[12]     packing[20]  29
    x[12]     packing[21]  163
    x[12]     packing[23]  55
    x[12]     packing[24]  73
    x[12]     packing[25]  105
    x[12]     packing[26]  86
    x[12]     packing[27]  101
    x[12]     packing[29]  192
    x[12]     packing[30]  144
    x[12]     packing[34]  119
    x[12]     packing[35]  152
    x[12]     packing[38]  36
    x[12]     packing[39]  52
    x[12]     packing[40]  5
    x[12]     packing[41]  35
    x[12]     packing[42]  81
    x[12]     packing[46]  66
    x[12]     packing[47]  83
    x[12]     packing[48]  109
    x[12]     packing[49]  25
    x[13]     OBJ       136
    x[13]     packing[0]  146
    x[13]     packing[1]  112
    x[13]     packing[2]  64
    x[13]     packing[3]  155
    x[13]     packing[4]  17
    x[13]     packing[5]  79
    x[13]     packing[6]  97
    x[13]     packing[7]  158
    x[13]     packing[8]  33
    x[13]     packing[9]  189
    x[13]     packing[10]  68
    x[13]     packing[11]  8
    x[13]     packing[12]  176
    x[13]     packing[13]  117
    x[13]     packing[14]  75
    x[13]     packing[20]  105
    x[13]     packing[21]  67
    x[13]     packing[22]  134
    x[13]     packing[23]  188
    x[13]     packing[24]  17
    x[13]     packing[25]  171
    x[13]     packing[26]  134
    x[13]     packing[27]  139
    x[13]     packing[28]  50
    x[13]     packing[30]  160
    x[13]     packing[31]  75
    x[13]     packing[32]  43
    x[13]     packing[34]  148
    x[13]     packing[35]  57
    x[13]     packing[36]  147
    x[13]     packing[37]  73
    x[13]     packing[38]  133
    x[13]     packing[40]  43
    x[13]     packing[43]  179
    x[13]     packing[44]  145
    x[13]     packing[48]  178
    x[14]     OBJ       137
    x[14]     packing[0]  33
    x[14]     packing[1]  81
    x[14]     packing[3]  182
    x[14]     packing[4]  15
    x[14]     packing[5]  6
    x[14]     packing[6]  118
    x[14]     packing[9]  24
    x[14]     packing[10]  96
    x[14]     packing[11]  25
    x[14]     packing[12]  70
    x[14]     packing[14]  180
    x[14]     packing[15]  162
    x[14]     packing[16]  195
    x[14]     packing[17]  136
    x[14]     packing[18]  67
    x[14]     packing[19]  63
    x[14]     packing[21]  69
    x[14]     packing[22]  93
    x[14]     packing[23]  12
    x[14]     packing[24]  56
    x[14]     packing[25]  79
    x[14]     packing[27]  41
    x[14]     packing[28]  56
    x[14]     packing[29]  80
    x[14]     packing[30]  98
    x[14]     packing[31]  82
    x[14]     packing[32]  26
    x[14]     packing[33]  42
    x[14]     packing[34]  165
    x[14]     packing[35]  48
    x[14]     packing[36]  188
    x[14]     packing[37]  92
    x[14]     packing[38]  30
    x[14]     packing[39]  108
    x[14]     packing[40]  51
    x[14]     packing[41]  194
    x[14]     packing[42]  196
    x[14]     packing[43]  130
    x[14]     packing[44]  81
    x[14]     packing[46]  75
    x[14]     packing[47]  116
    x[14]     packing[48]  20
    x[14]     packing[49]  137
    x[14]     R51       1
    x[15]     OBJ       141
    x[15]     packing[0]  172
    x[15]     packing[1]  180
    x[15]     packing[2]  94
    x[15]     packing[3]  68
    x[15]     packing[4]  179
    x[15]     packing[5]  116
    x[15]     packing[7]  35
    x[15]     packing[8]  157
    x[15]     packing[9]  71
    x[15]     packing[11]  55
    x[15]     packing[13]  32
    x[15]     packing[14]  66
    x[15]     packing[15]  199
    x[15]     packing[17]  145
    x[15]     packing[18]  144
    x[15]     packing[19]  163
    x[15]     packing[20]  140
    x[15]     packing[23]  84
    x[15]     packing[24]  113
    x[15]     packing[25]  135
    x[15]     packing[26]  52
    x[15]     packing[28]  83
    x[15]     packing[29]  193
    x[15]     packing[30]  165
    x[15]     packing[31]  142
    x[15]     packing[33]  16
    x[15]     packing[34]  98
    x[15]     packing[35]  156
    x[15]     packing[36]  10
    x[15]     packing[37]  62
    x[15]     packing[38]  142
    x[15]     packing[40]  59
    x[15]     packing[41]  55
    x[15]     packing[42]  117
    x[15]     packing[43]  102
    x[15]     packing[44]  89
    x[15]     packing[45]  48
    x[15]     packing[46]  186
    x[15]     packing[47]  59
    x[15]     packing[48]  112
    x[15]     packing[49]  79
    x[16]     OBJ       77
    x[16]     packing[1]  111
    x[16]     packing[3]  172
    x[16]     packing[4]  110
    x[16]     packing[5]  60
    x[16]     packing[6]  190
    x[16]     packing[7]  140
    x[16]     packing[8]  120
    x[16]     packing[9]  58
    x[16]     packing[10]  92
    x[16]     packing[11]  162
    x[16]     packing[13]  169
    x[16]     packing[14]  55
    x[16]     packing[16]  6
    x[16]     packing[17]  56
    x[16]     packing[18]  119
    x[16]     packing[19]  105
    x[16]     packing[20]  101
    x[16]     packing[21]  175
    x[16]     packing[22]  118
    x[16]     packing[24]  66
    x[16]     packing[25]  11
    x[16]     packing[26]  198
    x[16]     packing[27]  187
    x[16]     packing[28]  156
    x[16]     packing[30]  71
    x[16]     packing[31]  83
    x[16]     packing[32]  102
    x[16]     packing[33]  128
    x[16]     packing[34]  34
    x[16]     packing[35]  31
    x[16]     packing[36]  72
    x[16]     packing[37]  61
    x[16]     packing[38]  10
    x[16]     packing[40]  30
    x[16]     packing[41]  29
    x[16]     packing[43]  72
    x[16]     packing[47]  180
    x[16]     packing[48]  182
    x[16]     packing[49]  158
    x[16]     R51       1
    x[17]     OBJ       124
    x[17]     packing[0]  100
    x[17]     packing[1]  179
    x[17]     packing[2]  105
    x[17]     packing[3]  56
    x[17]     packing[4]  22
    x[17]     packing[5]  89
    x[17]     packing[7]  89
    x[17]     packing[8]  113
    x[17]     packing[9]  185
    x[17]     packing[10]  11
    x[17]     packing[11]  157
    x[17]     packing[12]  37
    x[17]     packing[13]  101
    x[17]     packing[15]  10
    x[17]     packing[16]  176
    x[17]     packing[19]  104
    x[17]     packing[20]  107
    x[17]     packing[21]  49
    x[17]     packing[22]  98
    x[17]     packing[23]  2
    x[17]     packing[26]  80
    x[17]     packing[27]  72
    x[17]     packing[29]  149
    x[17]     packing[30]  4
    x[17]     packing[31]  144
    x[17]     packing[32]  176
    x[17]     packing[33]  145
    x[17]     packing[35]  70
    x[17]     packing[37]  32
    x[17]     packing[38]  53
    x[17]     packing[39]  153
    x[17]     packing[40]  174
    x[17]     packing[41]  15
    x[17]     packing[44]  101
    x[17]     packing[45]  148
    x[17]     packing[47]  45
    x[17]     packing[48]  12
    x[17]     packing[49]  101
    x[18]     OBJ       71
    x[18]     packing[0]  93
    x[18]     packing[2]  51
    x[18]     packing[3]  119
    x[18]     packing[4]  82
    x[18]     packing[5]  68
    x[18]     packing[6]  189
    x[18]     packing[8]  174
    x[18]     packing[9]  79
    x[18]     packing[11]  37
    x[18]     packing[12]  194
    x[18]     packing[14]  43
    x[18]     packing[15]  134
    x[18]     packing[16]  1
    x[18]     packing[18]  37
    x[18]     packing[20]  54
    x[18]     packing[21]  159
    x[18]     packing[22]  31
    x[18]     packing[23]  47
    x[18]     packing[24]  191
    x[18]     packing[25]  173
    x[18]     packing[26]  87
    x[18]     packing[27]  173
    x[18]     packing[29]  164
    x[18]     packing[32]  7
    x[18]     packing[33]  71
    x[18]     packing[34]  144
    x[18]     packing[36]  55
    x[18]     packing[37]  114
    x[18]     packing[38]  115
    x[18]     packing[39]  71
    x[18]     packing[40]  157
    x[18]     packing[41]  196
    x[18]     packing[42]  167
    x[18]     packing[43]  70
    x[18]     packing[44]  35
    x[18]     packing[45]  132
    x[18]     packing[47]  67
    x[18]     packing[48]  187
    x[18]     packing[49]  170
    x[19]     OBJ       177
    x[19]     packing[0]  197
    x[19]     packing[2]  167
    x[19]     packing[3]  190
    x[19]     packing[4]  158
    x[19]     packing[6]  7
    x[19]     packing[7]  132
    x[19]     packing[9]  195
    x[19]     packing[11]  83
    x[19]     packing[12]  165
    x[19]     packing[15]  56
    x[19]     packing[16]  118
    x[19]     packing[17]  114
    x[19]     packing[18]  180
    x[19]     packing[20]  20
    x[19]     packing[22]  11
    x[19]     packing[23]  135
    x[19]     packing[27]  50
    x[19]     packing[29]  75
    x[19]     packing[30]  71
    x[19]     packing[31]  198
    x[19]     packing[32]  26
    x[19]     packing[33]  118
    x[19]     packing[34]  195
    x[19]     packing[35]  195
    x[19]     packing[36]  40
    x[19]     packing[37]  129
    x[19]     packing[38]  193
    x[19]     packing[40]  162
    x[19]     packing[41]  2
    x[19]     packing[43]  198
    x[19]     packing[46]  41
    x[19]     packing[47]  169
    x[19]     packing[48]  148
    x[19]     R51       1
    x[20]     OBJ       84
    x[20]     packing[0]  176
    x[20]     packing[1]  174
    x[20]     packing[2]  130
    x[20]     packing[3]  52
    x[20]     packing[4]  163
    x[20]     packing[5]  139
    x[20]     packing[6]  25
    x[20]     packing[10]  109
    x[20]     packing[11]  80
    x[20]     packing[13]  26
    x[20]     packing[14]  11
    x[20]     packing[18]  93
    x[20]     packing[19]  164
    x[20]     packing[20]  180
    x[20]     packing[21]  88
    x[20]     packing[22]  98
    x[20]     packing[23]  168
    x[20]     packing[24]  65
    x[20]     packing[25]  108
    x[20]     packing[26]  144
    x[20]     packing[27]  162
    x[20]     packing[28]  189
    x[20]     packing[29]  22
    x[20]     packing[31]  49
    x[20]     packing[32]  69
    x[20]     packing[33]  185
    x[20]     packing[34]  167
    x[20]     packing[35]  180
    x[20]     packing[36]  187
    x[20]     packing[37]  66
    x[20]     packing[38]  44
    x[20]     packing[39]  199
    x[20]     packing[41]  156
    x[20]     packing[42]  146
    x[20]     packing[43]  40
    x[20]     packing[45]  124
    x[20]     packing[46]  38
    x[20]     packing[48]  137
    MARKER    'MARKER'                 'INTEND'
RHS
    RHS1      packing[0]  906
    RHS1      packing[1]  738
    RHS1      packing[2]  689
    RHS1      packing[3]  1145
    RHS1      packing[4]  801
    RHS1      packing[5]  756
    RHS1      packing[6]  555
    RHS1      packing[7]  771
    RHS1      packing[8]  601
    RHS1      packing[9]  878
    RHS1      packing[10]  449
    RHS1      packing[11]  835
    RHS1      packing[12]  1012
    RHS1      packing[13]  764
    RHS1      packing[14]  829
    RHS1      packing[15]  747
    RHS1      packing[16]  586
    RHS1      packing[17]  668
    RHS1      packing[18]  711
    RHS1      packing[19]  714
    RHS1      packing[20]  655
    RHS1      packing[21]  695
    RHS1      packing[22]  641
    RHS1      packing[23]  820
    RHS1      packing[24]  583
    RHS1      packing[25]  764
    RHS1      packing[26]  602
    RHS1      packing[27]  796
    RHS1      packing[28]  646
    RHS1      packing[29]  772
    RHS1      packing[30]  675
    RHS1      packing[31]  952
    RHS1      packing[32]  600
    RHS1      packing[33]  504
    RHS1      packing[34]  1010
    RHS1      packing[35]  1016
    RHS1      packing[36]  867
    RHS1      packing[37]  786
    RHS1      packing[38]  897
    RHS1      packing[39]  751
    RHS1      packing[40]  702
    RHS1      packing[41]  686
    RHS1      packing[42]  828
    RHS1      packing[43]  607
    RHS1      packing[44]  556
    RHS1      packing[45]  642
    RHS1      packing[46]  740
    RHS1      packing[47]  881
    RHS1      packing[48]  978
    RHS1      packing[49]  661
    RHS1      R51       5
BOUNDS
 BV BND1      x[1]    
 BV BND1      x[2]    
 BV BND1      x[3]    
 BV BND1      x[4]    
 BV BND1      x[5]    
 BV BND1      x[6]    
 BV BND1      x[7]    
 BV BND1      x[8]    
 BV BND1      x[9]    
 BV BND1      x[10]   
 BV BND1      x[11]   
 BV BND1      x[12]   
 BV BND1      x[13]   
 BV BND1      x[14]   
 BV BND1      x[15]   
 BV BND1      x[16]   
 BV BND1      x[17]   
 BV BND1      x[18]   
 BV BND1      x[19]   
 BV BND1      x[20]   
ENDATA
